instances/p2/p2_2_20-3.dzn
Alphabet = {A,C,G,T};
ns = 2;
nc = 15;
neighbours = [| I(G),Null,Null,Null,Null,Null,Null,Null,Null,Null,Null,Null,Null,Null,Null | I(G),I(C),I(T),I(T),I(G),I(A),I(C),I(T),I(A),I(G),I(A),I(T),I(G),I(G),I(C) |];
