instances/p2/p2_2_20-3.txt
{
	"num_strings": 2,
	"alphabet": "ACGT",
	"strings": [
		"G",
		"GCTTGACTAGATGGC"
	],
	"str_length":[1,15]
}